%datafile - Caso 3 (ext2): PV negativo + producto de baja dureza
% P1: estándar (precio 150, dureza [3.0, 6.0])
% P2: producto de baja dureza (precio 175, dureza [2.5, 4.5]) -- favorece
% el uso intensivo de no vegetales (especialmente ANV1 con dureza 2.0).
VALOR_p = [150, 175];
MinD_p  = [3.0, 2.5];
MaxD_p  = [6.0, 4.5];

dureza = [8.8, 6.1, 2.0, 4.2, 5.0];
precios = [| 110, 120, 130, 110, 115
           | 130, 130, 110,  90, 115
           | 110, 140, 130, 100,  95
           | 120, 110, 120, 120, 125
           | 100, 120, 150, 110, 105
           |  90, 100, 140,  80, 135 |];

MAXV = 200;
MAXN = 250;

PV = -25;

MCAP = 1000;

CA = 5;

MinB = 90000;

inicial = [500, 500, 500, 500, 500];

%Nuevos

K = [0, 0, 0, 0, 0, 0];

T = [| 0, 0, 0, 0, 0
     | 0, 0, 0, 0, 0
     | 0, 0, 0, 0, 0
     | 0, 0, 0, 0, 0
     | 0, 0, 0, 0, 0
     | 0, 0, 0, 0, 0 |];

requiere = [| false, false, false, false, false
            | false, false, false, false, false
            | false, false, false, false, false
            | false, false, false, false, false
            | false, false, false, true,  false |];

reemplazo = [| false, false, false, false, false
             | true,  false, false, false, false
             | false, false, false, false, false
             | false, false, false, false, false
             | false, false, false, false, false |];
